\ENCODING=ISO-8859-1
\Problem name: 

Minimize
 obj: 0 y_3_3 + 0 y_3_3 + 10 y_3_3 + 15 y_3_3 + 30 y_3_3 + 10 y_3_3 + 35 y_3_3
      + 25 y_3_3 + 15 y_3_3 + 35 y_3_3 + 30 y_3_3 + 20 y_3_3 + 25 y_3_3
      + 30 y_3_3
Subject To
 c1:  y_3_3 - y_3_3 - y_3_3 - y_3_3 - y_3_3 + y_3_3 + y_3_3  = 1
 c2:  y_3_3 + y_3_3 - y_3_3 - y_3_3 - y_3_3 - y_3_3 + y_3_3  = 1
 c3:  y_3_3 + y_3_3 + y_3_3 - y_3_3 - y_3_3 - y_3_3 - y_3_3  = 1
 c4:  y_3_3 + y_3_3 + y_3_3  = 1
 c5:  y_3_3 + y_3_3 + y_3_3  = 1
 c6:  y_3_3 + y_3_3 + y_3_3  = 1
 c7:  y_3_3 + y_3_3 + y_3_3  = 1
 c8:  y_3_3 + y_3_3 + y_3_3  = 1
 c9:  y_3_3 + y_3_3 + y_3_3  = 1
 c10: y_3_3 + y_3_3 + y_3_3  = 1
 c11: y_3_3 + y_3_3 + y_3_3  = 1
 c12: y_3_3 - 3 y_3_3 <= 0
 c13: y_3_3 - 3 y_3_3 <= 0
 c14: y_3_3 - 3 y_3_3 <= 0
 c15: y_3_3 - 3 y_3_3 <= 0
 c16: y_3_3 - 3 y_3_3 <= 0
 c17: y_3_3 - 3 y_3_3 <= 0
 c18: y_3_3 - 3 y_3_3 <= 0
 c19: y_3_3 - 3 y_3_3 <= 0
 c20: y_3_3 - 3 y_3_3 <= 0
 c21: y_3_3 - 3 y_3_3 <= 0
 c22: y_3_3 - 3 y_3_3 <= 0
 c23: y_3_3 - 3 y_3_3 <= 0
Bounds
 0 <= y_3_3 <= 1
 0 <= y_3_3 <= 1
 0 <= y_3_3 <= 1
 0 <= y_3_3 <= 1
 0 <= y_3_3 <= 1
 0 <= y_3_3 <= 1
 0 <= y_3_3 <= 1
 0 <= y_3_3 <= 1
 0 <= y_3_3 <= 1
 0 <= y_3_3 <= 1
 0 <= y_3_3 <= 1
 0 <= y_3_3 <= 1
 0 <= y_3_3 <= 1
 0 <= y_3_3 <= 1
 0 <= y_3_3 <= 1
 0 <= y_3_3 <= 1
Binaries
 y_3_3  y_3_3  y_3_3  y_3_3  y_3_3  y_3_3  y_3_3  y_3_3  y_3_3  y_3_3  y_3_3 
 y_3_3  y_3_3  y_3_3  y_3_3  y_3_3 
End
